p cnf 20 30
-20 -12 11 0
-8 -17 -19 0
-3 -12 -8 0
1 7 12 0
7 -14 17 0
20 -6 11 0
8 -9 11 0
-15 7 10 0
5 -2 -11 0
-10 12 -2 0
-7 8 3 0
-1 15 -2 0
3 4 -15 0
12 16 -8 0
-7 4 -3 0
17 18 5 0
17 -7 -19 0
-7 19 1 0
13 8 16 0
-12 -19 -3 0
-1 -12 -17 0
-16 -4 -2 0
-13 10 -3 0
-9 -5 -11 0
6 19 3 0
-4 17 -1 0
-5 -8 14 0
9 -12 7 0
14 6 -18 0
2 0